c Random generated cnf formula, satisfiable: true
p cnf 10 50
-3 6 5 0
2 -3 -10 0
-10 -5 3 0
-4 3 6 0
-5 6 -10 0
8 -2 -5 0
2 -6 -3 0
4 10 -3 0
-4 6 5 0
-5 -9 4 0
-8 2 -6 0
9 8 3 0
-8 -5 -3 0
-3 -4 6 0
-2 8 -1 0
10 2 5 0
7 1 -9 0
-4 -7 6 0
4 -3 2 0
-7 10 -8 0
-4 -2 6 0
6 -2 -9 0
10 -4 3 0
-3 10 -5 0
-5 1 -8 0
-3 -10 -5 0
4 8 5 0
4 -6 -3 0
-7 4 -6 0
-6 3 -1 0
9 8 3 0
-9 -4 1 0
-4 2 5 0
-6 -4 9 0
-5 7 10 0
2 -8 -6 0
-10 -9 3 0
8 6 5 0
7 -2 -10 0
8 5 9 0
-9 -10 -5 0
-7 -3 10 0
9 3 -5 0
-10 8 5 0
6 2 -9 0
2 -1 4 0
-9 -10 1 0
-10 -4 6 0
10 5 8 0
-8 -2 5 0
